52      4       
10      10      10      10      
0       0       0       0       0       14      2       3       4       5       6       8       10      11      13      14      15      16      20      25      
5       2       4       3       2       7       7       12      21      22      23      29      50      
9       3       9       8       8       6       9       12      19      26      30      35      
3       8       5       8       6       12      21      27      28      29      31      33      34      42      43      48      49      50      
5       8       8       5       7       8       18      26      28      29      30      31      48      51      
10      5       10      5       10      7       19      27      30      31      43      47      50      
7       10      10      7       10      6       17      30      32      42      47      49      
1       7       6       10      6       9       26      27      30      37      40      45      47      48      50      
1       8       6       6       3       11      28      29      37      39      40      41      42      43      45      46      49      
7       10      8       4       6       10      27      37      38      40      41      42      45      47      48      50      
6       7       9       5       6       10      29      37      38      39      40      41      43      44      46      48      
7       10      9       7       7       5       24      27      28      43      48      
5       8       9       7       6       8       29      38      41      42      43      44      46      48      
6       9       10      9       7       8       31      38      40      41      43      45      47      49      
7       10      7       10      10      8       27      37      42      44      45      48      49      50      
5       5       4       7       10      7       28      29      37      40      41      43      45      
7       9       8       7       5       5       24      38      45      46      48      
2       6       9       6       9       8       36      37      39      40      41      42      43      44      
4       9       9       10      10      6       28      37      39      40      42      45      
3       10      5       7       7       7       36      38      39      41      43      45      46      
5       8       8       10      5       4       30      38      40      44      
3       10      10      10      10      5       37      38      39      40      42      
9       5       7       3       7       3       27      38      42      
3       10      4       8       10      4       37      39      40      44      
7       7       8       7       9       4       36      38      45      48      
1       10      6       3       8       3       36      42      43      
9       10      10      4       6       2       36      39      
9       7       7       7       10      2       36      38      
4       8       10      8       10      2       36      47      
5       7       10      8       6       2       41      46      
6       6       6       9       6       2       37      44      
6       4       5       9       8       2       37      43      
8       9       8       10      5       2       39      44      
10      10      7       10      4       1       41      
6       3       5       6       10      1       42      
8       9       7       10      9       1       52      
2       9       6       6       9       1       52      
1       6       10      8       10      1       52      
10      7       5       8       8       1       52      
4       8       7       9       8       1       52      
9       7       8       5       7       1       52      
9       6       8       6       2       1       52      
1       6       3       8       6       1       52      
4       5       10      10      8       1       52      
7       10      5       9       6       1       52      
9       7       10      8       10      1       52      
3       6       10      9       10      1       52      
5       6       10      7       10      1       52      
10      5       4       9       5       1       52      
7       10      6       10      8       1       52      
4       10      10      10      10      1       52      
0       0       0       0       0       0       
